17	4
15	11	12	18	
0	0	0	0	0	3	2	3	4	
1	0	0	3	0	3	5	6	7	
2	0	1	0	0	2	17	17	
2	0	0	10	0	3	9	10	17	
2	0	2	0	0	1	17	
25	0	8	0	0	1	17	
50	0	1	0	0	1	8	
250	0	0	6	0	2	16	17	
200	0	0	1	0	2	11	13	
125	0	0	0	3	1	17	
100	0	0	3	0	3	12	14	17	
25	3	0	0	0	2	15	17	
3	0	2	0	0	1	17	
10	7	0	0	0	3	17	17	17	
1	10	0	0	0	1	17	
6	0	0	10	0	2	17	17	
0	0	0	0	0	0	
